c This is QMaxSAT 2017 based on 14.07
c This is Glucose 3.0
c This is MiniSat 2.2.0
c WARNING: for repeatability, setting FPU to use double precision
c card = mrwto, comp = 0, pmodel = 0, narr = 12, mct = 127, verb = 0
cr firstCPXsol 0 0 0
c top = 79249421
c |  Number of variables:    38088                                            |
c |  Number of clauses:      4929333                                          |
c |  Weight of hard clauses: 79249421                                         |
c |  Number of soft clauses: 225288                                           |
c |  Number of unit soft clauses: 0                                           |
c |  Maximum Cardinality (by unit): 1064496408   (0           )               |
c last restart ## conflicts  :  1 7296 
o 160728 | cpuTime 0.797823 s
c Sum of weights = 88708034
c A number of soft clauses remained = 18774
c MRWTO encoding for Pseudo-Boolean Constraints
c sizeMax=65536
c No.0 Divisor=11	generated by pow1
c No.1 Divisor=11	generated by pow1
c No.2 Divisor=11	generated by pow1
c No.3 Divisor=12	generated by pow1
c No.4 Divisor=11	generated by pow1
c p0= 11	p1= 11	p2= 11	p3= 12	p4= 11	
c number of digits = 6
c linkingVar[0].size = 11, linkingVar[1].size = 11, linkingVar[2].size = 11, linkingVar[3].size = 12, linkingVar[4].size = 11, linkingVar[5].size = 1, 
c Pseudo-Boolean Constraints: 690450 variables and 7338298 clauses
c Sum of weights = 88708034
c A number of soft clauses remained = 18774
c MRWTO encoding for Pseudo-Boolean Constraints
c sizeMax=65536
c No.0 Divisor=11	generated by pow1
c No.1 Divisor=11	generated by pow1
c No.2 Divisor=11	generated by pow1
c No.3 Divisor=12	generated by pow1
c No.4 Divisor=11	generated by pow1
c p0= 11	p1= 11	p2= 11	p3= 12	p4= 11	
c number of digits = 6
c linkingVar[0].size = 11, linkingVar[1].size = 11, linkingVar[2].size = 11, linkingVar[3].size = 12, linkingVar[4].size = 11, linkingVar[5].size = 1, 
c Pseudo-Boolean Constraints: 690450 variables and 7338298 clauses
c Sum of weights = 88708034
c A number of soft clauses remained = 18774
c MRWTO encoding for Pseudo-Boolean Constraints
c sizeMax=65536
c No.0 Divisor=11	generated by pow1
c No.1 Divisor=11	generated by pow1
c No.2 Divisor=11	generated by pow1
c No.3 Divisor=12	generated by pow1
c No.4 Divisor=11	generated by pow1
c p0= 11	p1= 11	p2= 11	p3= 12	p4= 11	
c number of digits = 6
c linkingVar[0].size = 11, linkingVar[1].size = 11, linkingVar[2].size = 11, linkingVar[3].size = 12, linkingVar[4].size = 11, linkingVar[5].size = 1, 
c Pseudo-Boolean Constraints: 690450 variables and 7338298 clauses
c Sum of weights = 88708034
c A number of soft clauses remained = 18774
c MRWTO encoding for Pseudo-Boolean Constraints
c sizeMax=65536
c No.0 Divisor=11	generated by pow1
c No.1 Divisor=11	generated by pow1
c No.2 Divisor=11	generated by pow1
c No.3 Divisor=12	generated by pow1
c No.4 Divisor=11	generated by pow1
c p0= 11	p1= 11	p2= 11	p3= 12	p4= 11	
c number of digits = 6
c linkingVar[0].size = 11, linkingVar[1].size = 11, linkingVar[2].size = 11, linkingVar[3].size = 12, linkingVar[4].size = 11, linkingVar[5].size = 1, 
c Pseudo-Boolean Constraints: 690450 variables and 7338298 clauses
c Sum of weights = 88708034
c A number of soft clauses remained = 18774
c MRWTO encoding for Pseudo-Boolean Constraints
c sizeMax=65536
c No.0 Divisor=11	generated by pow1
c No.1 Divisor=11	generated by pow1
c No.2 Divisor=11	generated by pow1
c No.3 Divisor=12	generated by pow1
c No.4 Divisor=11	generated by pow1
c p0= 11	p1= 11	p2= 11	p3= 12	p4= 11	
c number of digits = 6
c linkingVar[0].size = 11, linkingVar[1].size = 11, linkingVar[2].size = 11, linkingVar[3].size = 12, linkingVar[4].size = 11, linkingVar[5].size = 1, 
c Pseudo-Boolean Constraints: 690450 variables and 7338298 clauses
c Sum of weights = 88708034
c A number of soft clauses remained = 18774
c MRWTO encoding for Pseudo-Boolean Constraints
c sizeMax=65536
c No.0 Divisor=11	generated by pow1
c No.1 Divisor=11	generated by pow1
c No.2 Divisor=11	generated by pow1
c No.3 Divisor=12	generated by pow1
c No.4 Divisor=11	generated by pow1
c p0= 11	p1= 11	p2= 11	p3= 12	p4= 11	
c number of digits = 6
c linkingVar[0].size = 11, linkingVar[1].size = 11, linkingVar[2].size = 11, linkingVar[3].size = 12, linkingVar[4].size = 11, linkingVar[5].size = 1, 
c Pseudo-Boolean Constraints: 690450 variables and 7338298 clauses
c Sum of weights = 88708034
c A number of soft clauses remained = 18774
c MRWTO encoding for Pseudo-Boolean Constraints
c sizeMax=65536
c No.0 Divisor=11	generated by pow1
c No.1 Divisor=11	generated by pow1
c No.2 Divisor=11	generated by pow1
c No.3 Divisor=12	generated by pow1
c No.4 Divisor=11	generated by pow1
c p0= 11	p1= 11	p2= 11	p3= 12	p4= 11	
c number of digits = 6
c linkingVar[0].size = 11, linkingVar[1].size = 11, linkingVar[2].size = 11, linkingVar[3].size = 12, linkingVar[4].size = 11, linkingVar[5].size = 1, 
c Pseudo-Boolean Constraints: 690450 variables and 7338298 clauses
c Sum of weights = 88708034
c A number of soft clauses remained = 18774
c MRWTO encoding for Pseudo-Boolean Constraints
c sizeMax=65536
c No.0 Divisor=11	generated by pow1
c No.1 Divisor=11	generated by pow1
c No.2 Divisor=11	generated by pow1
c No.3 Divisor=12	generated by pow1
c No.4 Divisor=11	generated by pow1
c p0= 11	p1= 11	p2= 11	p3= 12	p4= 11	
c number of digits = 6
c linkingVar[0].size = 11, linkingVar[1].size = 11, linkingVar[2].size = 11, linkingVar[3].size = 12, linkingVar[4].size = 11, linkingVar[5].size = 1, 
c Pseudo-Boolean Constraints: 690450 variables and 7338298 clauses
c Sum of weights = 88708034
c A number of soft clauses remained = 18774
c MRWTO encoding for Pseudo-Boolean Constraints
c sizeMax=65536
c No.0 Divisor=11	generated by pow1
c No.1 Divisor=11	generated by pow1
c No.2 Divisor=11	generated by pow1
c No.3 Divisor=12	generated by pow1
c No.4 Divisor=11	generated by pow1
c p0= 11	p1= 11	p2= 11	p3= 12	p4= 11	
c number of digits = 6
c linkingVar[0].size = 11, linkingVar[1].size = 11, linkingVar[2].size = 11, linkingVar[3].size = 12, linkingVar[4].size = 11, linkingVar[5].size = 1, 
c Pseudo-Boolean Constraints: 690450 variables and 7338298 clauses
c Sum of weights = 88708034
c A number of soft clauses remained = 18774
c MRWTO encoding for Pseudo-Boolean Constraints
c sizeMax=65536
c No.0 Divisor=11	generated by pow1
c No.1 Divisor=11	generated by pow1
c No.2 Divisor=11	generated by pow1
c No.3 Divisor=12	generated by pow1
c No.4 Divisor=11	generated by pow1
c p0= 11	p1= 11	p2= 11	p3= 12	p4= 11	
c number of digits = 6
c linkingVar[0].size = 11, linkingVar[1].size = 11, linkingVar[2].size = 11, linkingVar[3].size = 12, linkingVar[4].size = 11, linkingVar[5].size = 1, 
c Pseudo-Boolean Constraints: 690450 variables and 7338298 clauses
c Sum of weights = 88708034
c A number of soft clauses remained = 18774
c MRWTO encoding for Pseudo-Boolean Constraints
c sizeMax=65536
c No.0 Divisor=11	generated by pow1
c No.1 Divisor=11	generated by pow1
c No.2 Divisor=11	generated by pow1
c No.3 Divisor=12	generated by pow1
c No.4 Divisor=11	generated by pow1
c p0= 11	p1= 11	p2= 11	p3= 12	p4= 11	
c number of digits = 6
c linkingVar[0].size = 11, linkingVar[1].size = 11, linkingVar[2].size = 11, linkingVar[3].size = 12, linkingVar[4].size = 11, linkingVar[5].size = 1, 
c Pseudo-Boolean Constraints: 690450 variables and 7338298 clauses
c Sum of weights = 88708034
c A number of soft clauses remained = 18774
c MRWTO encoding for Pseudo-Boolean Constraints
c sizeMax=65536
c No.0 Divisor=11	generated by pow1
c No.1 Divisor=11	generated by pow1
c No.2 Divisor=11	generated by pow1
c No.3 Divisor=12	generated by pow1
c No.4 Divisor=11	generated by pow1
c p0= 11	p1= 11	p2= 11	p3= 12	p4= 11	
c number of digits = 6
c linkingVar[0].size = 11, linkingVar[1].size = 11, linkingVar[2].size = 11, linkingVar[3].size = 12, linkingVar[4].size = 11, linkingVar[5].size = 1, 
c Pseudo-Boolean Constraints: 690450 variables and 7338298 clauses
c last restart ## conflicts  :  589 235609 
o 111236 | cpuTime 587.892 s
c last restart ## conflicts  :  868 198157 
o 107909 | cpuTime 943.612 s
c last restart ## conflicts  :  1531 141840 
o 98107 | cpuTime 1491.98 s
s UNKNOWN
c Search is stopped by a limit (maybe time-limit)
cr positiVarArr: [ | 120(1->109) | 264(1->115) | 290(1->3) | 521(1->96) | 567(1->4) | 725(1->24) | 918(1->79) | 1031(1->54) | 1163(1->48) | 1259(1->6) | 1503(1->112) | 1538(1->9) | 1698(2->31) | 1843(3->38) | 1963(4->20) | 2079(5->1) | 2266(6->47) | 2357(7->1) | 2552(8->57) | 2734(9->101) | 2855(10->84) | 2931(11->22) | 3167(12->120) | 3261(13->76) | 3393(14->70) | 3529(15->68) | 3632(16->33) | 3758(17->21) | 3898(18->23) | 4096(19->83) | 4213(20->62) | 4282(21->1) | 4444(22->17) | 4576(23->11) | 4711(24->8) | 4856(25->15) | 5037(26->58) | 5131(27->14) | 5267(28->12) | 5493(29->100) | 5654(30->123) | 5749(31->80) | 5934(32->127) | 5986(33->41) | 6181(34->98) | 6220(35->1) | 6377(36->18) | 6525(37->28) | 6717(38->82) | 6824(39->51) | 6946(40->35) | 7109(41->60) | 7227(42->40) | 7361(43->36) | 7508(44->45) | 7592(45->1) | 7783(46->44) | 7995(47->118) | 8040(48->25) | 8145(49->1) | 8287(50->1) | 8471(51->42) | 8671(52->104) | 8826(53->121) | 8838(54->1) | 9092(55->111) | 9216(56->97) | 9379(57->122) | 9459(58->64) | 9623(59->90) | 9678(60->7) | 9922(61->113) | 10073(62->126) | 10187(63->102) | 10292(64->69) | 10400(65->39) | 10605(66->106) | 10710(67->73) | 10867(68->92) | 10932(69->19) | 11140(70->89) | 11263(71->74) | 11452(72->125) | 11466(73->1) | 11629(74->26) | 11812(75->71) | 11916(76->37) | 12133(77->116) | 12246(78->91) | 12327(79->34) | 12421(80->1) | 12599(81->30) | 12815(82->108) | 12910(83->65) | 12985(84->2) | 13118(85->1) | 13331(86->72) | 13502(87->105) | 13620(88->85) | 13748(89->75) | 13930(90->119) | 14035(91->86) | 14204(92->117) | 14291(93->66) | 14440(94->77) | 14604(95->103) | 14695(96->56) | 14887(97->110) | 14967(98->52) | 15146(99->93) | 15218(100->27) | 15342(101->13) | 15581(102->114) | 15599(103->1) | 15802(104->59) | 15931(105->50) | 16100(106->81) | 16235(107->78) | 16338(108->43) | 16521(109->88) | 16658(110->87) | 16808(111->99) | 16941(112->94) | 17038(113->53) | 17184(114->61) | 17290(115->29) | 17506(116->107) | 17569(117->32) | 17721(118->46) | 17876(119->63) | 18006(120->55) | 18099(121->10) | 18322(122->95) | 18414(123->49) | 18519(124->16) | 18765(125->124) | 18784(126->5) | 18984(127->67) | ]
cr the 1-th chain: [ 1->109->88->85->1 ] (#non-depot=3) {#cumul.=4}
cr the 2-th chain: [ 1->115->29->100->27->14->70->89->75->71->74->26->58->64->69->19->83->65->39->51->42->40->35->1 ] (#non-depot=22) {#cumul.=26}
cr the 3-th chain: [ 1->3->38->82->108->43->36->18->23->11->22->17->21->1 ] (#non-depot=12) {#cumul.=38}
cr the 4-th chain: [ 1->96->56->97->110->87->105->50->1 ] (#non-depot=7) {#cumul.=45}
cr the 5-th chain: [ 1->4->20->62->126->5->1 ] (#non-depot=5) {#cumul.=50}
cr the 6-th chain: [ 1->24->8->57->122->95->103->1 ] (#non-depot=6) {#cumul.=56}
cr the 7-th chain: [ 1->79->34->98->52->104->59->90->119->63->102->114->61->113->53->121->10->84->2->31->80->1 ] (#non-depot=20) {#cumul.=76}
cr the 8-th chain: [ 1->54->1 ] (#non-depot=1) {#cumul.=77}
cr the 9-th chain: [ 1->48->25->15->68->92->117->32->127->67->73->1 ] (#non-depot=10) {#cumul.=87}
cr the 10-th chain: [ 1->6->47->118->46->44->45->1 ] (#non-depot=6) {#cumul.=93}
cr the 11-th chain: [ 1->112->94->77->116->107->78->91->86->72->125->124->16->33->41->60->7->1 ] (#non-depot=16) {#cumul.=109}
cr the 12-th chain: [ 1->9->101->13->76->37->28->12->120->55->111->99->93->66->106->81->30->123->49->1 ] (#non-depot=18) {#cumul.=127}
c Latest Answer = 0 by 4 loops
c restarts              : 3014
c conflicts             : 482519         (134 /sec)
c decisions             : 126740042      (0.00 % random) (35218 /sec)
c propagations          : 26976296358    (7496106 /sec)
c conflict literals     : 43759904       (17.37 % deleted)
c Memory used           : 7662.00 MB
c CPU time              : 3598.71 s
